S = 30;
P = 15;
Start = [0, 0, 0, 0, 11, 12, 0, 3, 0, 0, 0, 15, 0, 1, 0, 13, 0, 2, 0, 6, 0, 14, 7, 0, 4, 8, 0, 9, 10, 5];
Goal = [1, 0, 0, 0, 5, 0, 0, 0, 8, 12, 0, 0, 9, 13, 0, 14, 0, 10, 15, 0, 0, 4, 6, 7, 0, 3, 0, 0, 11, 2];
Can_swap = [true, false, true, false, true, true, false, true, false, false, true, true, false, false, false];
